minizinc/perfect_square_placement_problems/7.dzn
% Data for perfect square placement problem:
% http://www.hakank.org/minizinc/perfect_square_placement.mzn
% Data is originally from CSPLib:
% http://www.cs.st-andrews.ac.uk/~ianm/CSPLib/prob/prob009/results

% problem 7 
n = 154;
size = 22;
a = [2,5,9,11,16,17,19,21,22,24,26,30,31,33,35,36,41,46,47,50,52,61];

